p cnf 167 912
1 -69 0
1 -70 0
69 -69 0
70 -70 0
18 -75 0
18 -76 0
75 -75 0
76 -76 0
35 -81 0
35 -82 0
81 -81 0
82 -82 0
52 -87 0
52 -88 0
87 -87 0
88 -88 0
2 -69 0
2 -70 0
69 -69 0
70 -70 0
19 -75 0
19 -76 0
75 -75 0
76 -76 0
36 -81 0
36 -82 0
81 -81 0
82 -82 0
53 -87 0
53 -88 0
87 -87 0
88 -88 0
-3 -69 0
-3 -70 0
69 -69 0
70 -70 0
-20 -75 0
-20 -76 0
75 -75 0
76 -76 0
-37 -81 0
-37 -82 0
81 -81 0
82 -82 0
-54 -87 0
-54 -88 0
87 -87 0
88 -88 0
4 -69 0
4 -70 0
69 -69 0
70 -70 0
21 -75 0
21 -76 0
75 -75 0
76 -76 0
38 -81 0
38 -82 0
81 -81 0
82 -82 0
55 -87 0
55 -88 0
87 -87 0
88 -88 0
5 -69 0
5 -70 0
69 -69 0
70 -70 0
22 -75 0
22 -76 0
75 -75 0
76 -76 0
39 -81 0
39 -82 0
81 -81 0
82 -82 0
56 -87 0
56 -88 0
87 -87 0
88 -88 0
6 -69 0
6 -70 0
69 -69 0
70 -70 0
23 -75 0
23 -76 0
75 -75 0
76 -76 0
40 -81 0
40 -82 0
81 -81 0
82 -82 0
57 -87 0
57 -88 0
87 -87 0
88 -88 0
7 -69 0
7 -70 0
69 -69 0
70 -70 0
24 -75 0
24 -76 0
75 -75 0
76 -76 0
41 -81 0
41 -82 0
81 -81 0
82 -82 0
58 -87 0
58 -88 0
87 -87 0
88 -88 0
8 -69 0
8 -70 0
69 -69 0
70 -70 0
25 -75 0
25 -76 0
75 -75 0
76 -76 0
42 -81 0
42 -82 0
81 -81 0
82 -82 0
59 -87 0
59 -88 0
87 -87 0
88 -88 0
9 -93 -69 0
-9 93 -69 0
9 93 -70 0
-9 -93 -70 0
26 -93 -75 0
-26 93 -75 0
26 93 -76 0
-26 -93 -76 0
43 -93 -81 0
-43 93 -81 0
43 93 -82 0
-43 -93 -82 0
60 -93 -87 0
-60 93 -87 0
60 93 -88 0
-60 -93 -88 0
-10 -69 0
-10 -70 0
69 -69 0
70 -70 0
-27 -75 0
-27 -76 0
75 -75 0
76 -76 0
-44 -81 0
-44 -82 0
81 -81 0
82 -82 0
-61 -87 0
-61 -88 0
87 -87 0
88 -88 0
11 -94 -69 0
-11 94 -69 0
11 94 -70 0
-11 -94 -70 0
28 -94 -75 0
-28 94 -75 0
28 94 -76 0
-28 -94 -76 0
45 -94 -81 0
-45 94 -81 0
45 94 -82 0
-45 -94 -82 0
62 -94 -87 0
-62 94 -87 0
62 94 -88 0
-62 -94 -88 0
12 -95 -69 0
-12 95 -69 0
12 95 -70 0
-12 -95 -70 0
29 -95 -75 0
-29 95 -75 0
29 95 -76 0
-29 -95 -76 0
46 -95 -81 0
-46 95 -81 0
46 95 -82 0
-46 -95 -82 0
63 -95 -87 0
-63 95 -87 0
63 95 -88 0
-63 -95 -88 0
13 -69 0
13 -70 0
69 -69 0
70 -70 0
30 -75 0
30 -76 0
75 -75 0
76 -76 0
47 -81 0
47 -82 0
81 -81 0
82 -82 0
64 -87 0
64 -88 0
87 -87 0
88 -88 0
14 -96 -69 0
-14 96 -69 0
14 96 -70 0
-14 -96 -70 0
31 -96 -75 0
-31 96 -75 0
31 96 -76 0
-31 -96 -76 0
48 -96 -81 0
-48 96 -81 0
48 96 -82 0
-48 -96 -82 0
65 -96 -87 0
-65 96 -87 0
65 96 -88 0
-65 -96 -88 0
15 -97 -69 0
-15 97 -69 0
15 97 -70 0
-15 -97 -70 0
32 -97 -75 0
-32 97 -75 0
32 97 -76 0
-32 -97 -76 0
49 -97 -81 0
-49 97 -81 0
49 97 -82 0
-49 -97 -82 0
66 -97 -87 0
-66 97 -87 0
66 97 -88 0
-66 -97 -88 0
16 -98 -69 0
-16 98 -69 0
16 98 -70 0
-16 -98 -70 0
33 -98 -75 0
-33 98 -75 0
33 98 -76 0
-33 -98 -76 0
50 -98 -81 0
-50 98 -81 0
50 98 -82 0
-50 -98 -82 0
67 -98 -87 0
-67 98 -87 0
67 98 -88 0
-67 -98 -88 0
17 -69 0
17 -70 0
69 -69 0
70 -70 0
34 -75 0
34 -76 0
75 -75 0
76 -76 0
51 -81 0
51 -82 0
81 -81 0
82 -82 0
68 -87 0
68 -88 0
87 -87 0
88 -88 0
-144 69 0
144 -69 0
-145 70 0
144 -70 0
-144 -69 0
-145 -70 0
-150 69 144 0
150 -69 0
150 -144 0
-151 70 145 0
151 -70 0
151 -145 0
-150 -75 0
-151 -76 0
-156 75 150 0
156 -75 0
156 -150 0
-157 76 151 0
157 -76 0
157 -151 0
-156 -81 0
-157 -82 0
-162 81 156 0
162 -81 0
162 -156 0
-163 82 157 0
163 -82 0
163 -157 0
-162 -87 0
-163 -88 0
162 0
163 0
1 -71 0
1 -72 0
71 -71 0
72 -72 0
18 -77 0
18 -78 0
77 -77 0
78 -78 0
35 -83 0
35 -84 0
83 -83 0
84 -84 0
52 -89 0
52 -90 0
89 -89 0
90 -90 0
2 -71 0
2 -72 0
71 -71 0
72 -72 0
19 -77 0
19 -78 0
77 -77 0
78 -78 0
36 -83 0
36 -84 0
83 -83 0
84 -84 0
53 -89 0
53 -90 0
89 -89 0
90 -90 0
3 -71 0
3 -72 0
71 -71 0
72 -72 0
20 -77 0
20 -78 0
77 -77 0
78 -78 0
37 -83 0
37 -84 0
83 -83 0
84 -84 0
54 -89 0
54 -90 0
89 -89 0
90 -90 0
4 -71 0
4 -72 0
71 -71 0
72 -72 0
21 -77 0
21 -78 0
77 -77 0
78 -78 0
38 -83 0
38 -84 0
83 -83 0
84 -84 0
55 -89 0
55 -90 0
89 -89 0
90 -90 0
5 -99 -71 0
-5 99 -71 0
5 99 -72 0
-5 -99 -72 0
22 -99 -77 0
-22 99 -77 0
22 99 -78 0
-22 -99 -78 0
39 -99 -83 0
-39 99 -83 0
39 99 -84 0
-39 -99 -84 0
56 -99 -89 0
-56 99 -89 0
56 99 -90 0
-56 -99 -90 0
6 -71 0
6 -72 0
71 -71 0
72 -72 0
23 -77 0
23 -78 0
77 -77 0
78 -78 0
40 -83 0
40 -84 0
83 -83 0
84 -84 0
57 -89 0
57 -90 0
89 -89 0
90 -90 0
7 -100 -71 0
-7 100 -71 0
7 100 -72 0
-7 -100 -72 0
24 -100 -77 0
-24 100 -77 0
24 100 -78 0
-24 -100 -78 0
41 -100 -83 0
-41 100 -83 0
41 100 -84 0
-41 -100 -84 0
58 -100 -89 0
-58 100 -89 0
58 100 -90 0
-58 -100 -90 0
8 -101 -71 0
-8 101 -71 0
8 101 -72 0
-8 -101 -72 0
25 -101 -77 0
-25 101 -77 0
25 101 -78 0
-25 -101 -78 0
42 -101 -83 0
-42 101 -83 0
42 101 -84 0
-42 -101 -84 0
59 -101 -89 0
-59 101 -89 0
59 101 -90 0
-59 -101 -90 0
9 -102 -71 0
-9 102 -71 0
9 102 -72 0
-9 -102 -72 0
26 -102 -77 0
-26 102 -77 0
26 102 -78 0
-26 -102 -78 0
43 -102 -83 0
-43 102 -83 0
43 102 -84 0
-43 -102 -84 0
60 -102 -89 0
-60 102 -89 0
60 102 -90 0
-60 -102 -90 0
10 -103 -71 0
-10 103 -71 0
10 103 -72 0
-10 -103 -72 0
27 -103 -77 0
-27 103 -77 0
27 103 -78 0
-27 -103 -78 0
44 -103 -83 0
-44 103 -83 0
44 103 -84 0
-44 -103 -84 0
61 -103 -89 0
-61 103 -89 0
61 103 -90 0
-61 -103 -90 0
-11 -71 0
-11 -72 0
71 -71 0
72 -72 0
-28 -77 0
-28 -78 0
77 -77 0
78 -78 0
-45 -83 0
-45 -84 0
83 -83 0
84 -84 0
-62 -89 0
-62 -90 0
89 -89 0
90 -90 0
12 -104 -71 0
-12 104 -71 0
12 104 -72 0
-12 -104 -72 0
29 -104 -77 0
-29 104 -77 0
29 104 -78 0
-29 -104 -78 0
46 -104 -83 0
-46 104 -83 0
46 104 -84 0
-46 -104 -84 0
63 -104 -89 0
-63 104 -89 0
63 104 -90 0
-63 -104 -90 0
13 -71 0
13 -72 0
71 -71 0
72 -72 0
30 -77 0
30 -78 0
77 -77 0
78 -78 0
47 -83 0
47 -84 0
83 -83 0
84 -84 0
64 -89 0
64 -90 0
89 -89 0
90 -90 0
14 -105 -71 0
-14 105 -71 0
14 105 -72 0
-14 -105 -72 0
31 -105 -77 0
-31 105 -77 0
31 105 -78 0
-31 -105 -78 0
48 -105 -83 0
-48 105 -83 0
48 105 -84 0
-48 -105 -84 0
65 -105 -89 0
-65 105 -89 0
65 105 -90 0
-65 -105 -90 0
15 -71 0
15 -72 0
71 -71 0
72 -72 0
32 -77 0
32 -78 0
77 -77 0
78 -78 0
49 -83 0
49 -84 0
83 -83 0
84 -84 0
66 -89 0
66 -90 0
89 -89 0
90 -90 0
16 -71 0
16 -72 0
71 -71 0
72 -72 0
33 -77 0
33 -78 0
77 -77 0
78 -78 0
50 -83 0
50 -84 0
83 -83 0
84 -84 0
67 -89 0
67 -90 0
89 -89 0
90 -90 0
17 -71 0
17 -72 0
71 -71 0
72 -72 0
34 -77 0
34 -78 0
77 -77 0
78 -78 0
51 -83 0
51 -84 0
83 -83 0
84 -84 0
68 -89 0
68 -90 0
89 -89 0
90 -90 0
-146 71 0
146 -71 0
-147 72 0
146 -72 0
-146 -71 0
-147 -72 0
-152 71 146 0
152 -71 0
152 -146 0
-153 72 147 0
153 -72 0
153 -147 0
-152 -77 0
-153 -78 0
-158 77 152 0
158 -77 0
158 -152 0
-159 78 153 0
159 -78 0
159 -153 0
-158 -83 0
-159 -84 0
-164 83 158 0
164 -83 0
164 -158 0
-165 84 159 0
165 -84 0
165 -159 0
-164 -89 0
-165 -90 0
164 0
165 0
1 -106 -73 0
-1 106 -73 0
1 106 -74 0
-1 -106 -74 0
18 -106 -79 0
-18 106 -79 0
18 106 -80 0
-18 -106 -80 0
35 -106 -85 0
-35 106 -85 0
35 106 -86 0
-35 -106 -86 0
52 -106 -91 0
-52 106 -91 0
52 106 -92 0
-52 -106 -92 0
2 -73 0
2 -74 0
73 -73 0
74 -74 0
19 -79 0
19 -80 0
79 -79 0
80 -80 0
36 -85 0
36 -86 0
85 -85 0
86 -86 0
53 -91 0
53 -92 0
91 -91 0
92 -92 0
3 -107 -73 0
-3 107 -73 0
3 107 -74 0
-3 -107 -74 0
20 -107 -79 0
-20 107 -79 0
20 107 -80 0
-20 -107 -80 0
37 -107 -85 0
-37 107 -85 0
37 107 -86 0
-37 -107 -86 0
54 -107 -91 0
-54 107 -91 0
54 107 -92 0
-54 -107 -92 0
4 -108 -73 0
-4 108 -73 0
4 108 -74 0
-4 -108 -74 0
21 -108 -79 0
-21 108 -79 0
21 108 -80 0
-21 -108 -80 0
38 -108 -85 0
-38 108 -85 0
38 108 -86 0
-38 -108 -86 0
55 -108 -91 0
-55 108 -91 0
55 108 -92 0
-55 -108 -92 0
5 -73 0
5 -74 0
73 -73 0
74 -74 0
22 -79 0
22 -80 0
79 -79 0
80 -80 0
39 -85 0
39 -86 0
85 -85 0
86 -86 0
56 -91 0
56 -92 0
91 -91 0
92 -92 0
6 -73 0
6 -74 0
73 -73 0
74 -74 0
23 -79 0
23 -80 0
79 -79 0
80 -80 0
40 -85 0
40 -86 0
85 -85 0
86 -86 0
57 -91 0
57 -92 0
91 -91 0
92 -92 0
7 -73 0
7 -74 0
73 -73 0
74 -74 0
24 -79 0
24 -80 0
79 -79 0
80 -80 0
41 -85 0
41 -86 0
85 -85 0
86 -86 0
58 -91 0
58 -92 0
91 -91 0
92 -92 0
8 -73 0
8 -74 0
73 -73 0
74 -74 0
25 -79 0
25 -80 0
79 -79 0
80 -80 0
42 -85 0
42 -86 0
85 -85 0
86 -86 0
59 -91 0
59 -92 0
91 -91 0
92 -92 0
9 -73 0
9 -74 0
73 -73 0
74 -74 0
26 -79 0
26 -80 0
79 -79 0
80 -80 0
43 -85 0
43 -86 0
85 -85 0
86 -86 0
60 -91 0
60 -92 0
91 -91 0
92 -92 0
-10 -73 0
-10 -74 0
73 -73 0
74 -74 0
-27 -79 0
-27 -80 0
79 -79 0
80 -80 0
-44 -85 0
-44 -86 0
85 -85 0
86 -86 0
-61 -91 0
-61 -92 0
91 -91 0
92 -92 0
11 -73 0
11 -74 0
73 -73 0
74 -74 0
28 -79 0
28 -80 0
79 -79 0
80 -80 0
45 -85 0
45 -86 0
85 -85 0
86 -86 0
62 -91 0
62 -92 0
91 -91 0
92 -92 0
12 -73 0
12 -74 0
73 -73 0
74 -74 0
29 -79 0
29 -80 0
79 -79 0
80 -80 0
46 -85 0
46 -86 0
85 -85 0
86 -86 0
63 -91 0
63 -92 0
91 -91 0
92 -92 0
13 -73 0
13 -74 0
73 -73 0
74 -74 0
30 -79 0
30 -80 0
79 -79 0
80 -80 0
47 -85 0
47 -86 0
85 -85 0
86 -86 0
64 -91 0
64 -92 0
91 -91 0
92 -92 0
-14 -73 0
-14 -74 0
73 -73 0
74 -74 0
-31 -79 0
-31 -80 0
79 -79 0
80 -80 0
-48 -85 0
-48 -86 0
85 -85 0
86 -86 0
-65 -91 0
-65 -92 0
91 -91 0
92 -92 0
-15 -73 0
-15 -74 0
73 -73 0
74 -74 0
-32 -79 0
-32 -80 0
79 -79 0
80 -80 0
-49 -85 0
-49 -86 0
85 -85 0
86 -86 0
-66 -91 0
-66 -92 0
91 -91 0
92 -92 0
-16 -73 0
-16 -74 0
73 -73 0
74 -74 0
-33 -79 0
-33 -80 0
79 -79 0
80 -80 0
-50 -85 0
-50 -86 0
85 -85 0
86 -86 0
-67 -91 0
-67 -92 0
91 -91 0
92 -92 0
17 -73 0
17 -74 0
73 -73 0
74 -74 0
34 -79 0
34 -80 0
79 -79 0
80 -80 0
51 -85 0
51 -86 0
85 -85 0
86 -86 0
68 -91 0
68 -92 0
91 -91 0
92 -92 0
-148 73 0
148 -73 0
-149 74 0
148 -74 0
-148 -73 0
-149 -74 0
-154 73 148 0
154 -73 0
154 -148 0
-155 74 149 0
155 -74 0
155 -149 0
-154 -79 0
-155 -80 0
-160 79 154 0
160 -79 0
160 -154 0
-161 80 155 0
161 -80 0
161 -155 0
-160 -85 0
-161 -86 0
-166 85 160 0
166 -85 0
166 -160 0
-167 86 161 0
167 -86 0
167 -161 0
-166 -91 0
-167 -92 0
166 0
167 0
